70 5529918
29 38 62 54 3 48 5 57 42 13 32 37 14 52 28 1 66 63 70 21 23 68 69 64 56 35 11 8 50 25 4 40 10 15 33 31 47 61 55 18 16 44 20 6 41 65 30 26 19 53 2 51 45 34 43 49 17 7 46 67 9 12 60 59 27 36 24 39 22 58 
